10
1 0 2
2 0 3
2 1 13
3 0 9
3 1 13
3 2 7
4 0 3
4 1 10
4 2 10
4 3 6
5 0 10
5 1 20
5 2 7
5 3 12
5 4 18
6 0 20
6 1 4
6 2 7
6 3 6
6 4 14
6 5 12
7 0 12
7 1 11
7 2 16
7 3 8
7 4 14
7 5 15
7 6 12
8 0 13
8 1 9
8 2 12
8 3 19
8 4 14
8 5 3
8 6 1
8 7 12
9 0 18
9 1 8
9 2 11
9 3 19
9 4 13
9 5 9
9 6 4
9 7 16
9 8 12
